CMPL model generation - running

CMPL version: 1.11.0
Authors: Thomas Schleiff, Mike Steglich
Distributed under the GPLv3 

create model instance ...
write model instance ...
CMPL model generation - finished

Solver - running


Welcome to IBM(R) ILOG(R) CPLEX(R) Interactive Optimizer 12.7.1.0
  with Simplex, Mixed Integer & Barrier Optimizers
5725-A06 5725-A29 5724-Y48 5724-Y49 5724-Y54 5724-Y55 5655-Y21
Copyright IBM Corp. 1988, 2017.  All Rights Reserved.

Type 'help' for a list of available commands.
Type 'help' followed by a command name for more
information on commands.

CPLEX> Specified objective sense: MINIMIZE
Selected objective  name:  line[1]
Selected RHS        name:  RHS
Selected bound      name:  BOUND
Problem '/tmp/cmpl.T24019.mps' read.
Read time = 0.05 sec. (8.17 ticks)
CPLEX> CPXPARAM_Read_APIEncoding                        "UTF-8"
Tried aggregator 3 times.
MIP Presolve eliminated 19237 rows and 30701 columns.
MIP Presolve modified 340 coefficients.
Aggregator did 627 substitutions.
Reduced MIP has 2491 rows, 3265 columns, and 9529 nonzeros.
Reduced MIP has 3097 binaries, 0 generals, 0 SOSs, and 0 indicators.
Presolve time = 0.05 sec. (41.84 ticks)
Found incumbent of value 626.938786 after 0.10 sec. (66.66 ticks)
Probing fixed 8 vars, tightened 0 bounds.
Probing time = 0.01 sec. (4.23 ticks)
Tried aggregator 1 time.
MIP Presolve eliminated 0 rows and 8 columns.
MIP Presolve modified 32 coefficients.
Reduced MIP has 2491 rows, 3257 columns, and 9513 nonzeros.
Reduced MIP has 3257 binaries, 0 generals, 0 SOSs, and 0 indicators.
Presolve time = 0.01 sec. (8.10 ticks)
Probing time = 0.01 sec. (2.68 ticks)
Clique table members: 5917.
MIP emphasis: balance optimality and feasibility.
MIP search method: dynamic search.
Parallel mode: none, using 1 thread.
Root relaxation solution time = 0.01 sec. (4.49 ticks)

        Nodes                                         Cuts/
   Node  Left     Objective  IInf  Best Integer    Best Bound    ItCnt     Gap

*     0+    0                          626.9388      -38.3631           106.12%
      0     0      138.0431    14      626.9388      138.0431      115   77.98%
*     0+    0                          148.2300      138.0431             6.87%
*     0+    0                          138.4431      138.0431             0.29%
*     0     0      integral     0      138.4187       Cuts: 6      117    0.00%
      0     0        cutoff            138.4187      138.4187      117    0.00%
Elapsed time = 0.16 sec. (105.08 ticks, tree = 0.01 MB, solutions = 4)

Cover cuts applied:  4
Gomory fractional cuts applied:  2

Root node processing (before b&c):
  Real time             =    0.16 sec. (106.80 ticks)
Sequential b&c:
  Real time             =    0.00 sec. (0.00 ticks)
                          ------------
Total (root+branch&cut) =    0.16 sec. (106.80 ticks)

Solution pool: 4 solutions saved.

MIP - Integer optimal solution:  Objective =  1.3841866700e+02
Solution time =    0.16 sec.  Iterations = 117  Nodes = 0
Deterministic time = 106.90 ticks  (663.89 ticks/sec)

CPLEX> Incumbent solution written to file '/tmp/cmpl.T24019.gsol'.
CPLEX> 
CMPL: Time used for model generation: 1 seconds
CMPL: Time used for solving the model: 1 seconds


Solution written to ASCII file: results/output_generated_conf_0.4/2017-06-05-4/fair-nonlinear.sol

Solver - finished
